c description: Subset cardinality formula for Random regular bipartite with (10,10) vertices and left degree 4 + 1 random edges
c generator: CNFgen (0.9.0)
c copyright: (C) 2012-2020 Massimo Lauria <massimo.lauria@uniroma1.it>
c url: https://massimolauria.net/cnfgen
c command line: cnfgen subsetcard 10
c
p cnf 41 92
1 2 3 0
1 2 4 0
1 3 4 0
2 3 4 0
5 6 7 0
5 6 8 0
5 6 9 0
5 7 8 0
5 7 9 0
5 8 9 0
6 7 8 0
6 7 9 0
6 8 9 0
7 8 9 0
10 11 12 0
10 11 13 0
10 12 13 0
11 12 13 0
14 15 16 0
14 15 17 0
14 16 17 0
15 16 17 0
18 19 20 0
18 19 21 0
18 20 21 0
19 20 21 0
22 23 24 0
22 23 25 0
22 24 25 0
23 24 25 0
26 27 28 0
26 27 29 0
26 28 29 0
27 28 29 0
30 31 32 0
30 31 33 0
30 32 33 0
31 32 33 0
34 35 36 0
34 35 37 0
34 36 37 0
35 36 37 0
38 39 40 0
38 39 41 0
38 40 41 0
39 40 41 0
-26 -30 -34 0
-26 -30 -38 0
-26 -34 -38 0
-30 -34 -38 0
-18 -27 -31 0
-18 -27 -39 0
-18 -31 -39 0
-27 -31 -39 0
-10 -28 -35 0
-10 -28 -40 0
-10 -35 -40 0
-28 -35 -40 0
-5 -11 -14 0
-5 -11 -19 0
-5 -14 -19 0
-11 -14 -19 0
-1 -6 -20 0
-1 -6 -22 0
-1 -20 -22 0
-6 -20 -22 0
-2 -7 -15 0
-2 -7 -32 0
-2 -7 -41 0
-2 -15 -32 0
-2 -15 -41 0
-2 -32 -41 0
-7 -15 -32 0
-7 -15 -41 0
-7 -32 -41 0
-15 -32 -41 0
-3 -8 -33 0
-3 -8 -36 0
-3 -33 -36 0
-8 -33 -36 0
-9 -16 -21 0
-9 -16 -23 0
-9 -21 -23 0
-16 -21 -23 0
-12 -17 -24 0
-12 -17 -29 0
-12 -24 -29 0
-17 -24 -29 0
-4 -13 -25 0
-4 -13 -37 0
-4 -25 -37 0
-13 -25 -37 0
